Instance0
Gap









14.60%
11.78%
11.60%
10.88%
10.88%
10.88%
9.89%
8.69%
7.58%
6.22%
2.92%
2.48%
2.34%
2.21%
1.54%
1.46%
1.25%
0.00%
CPXPARAM_MIP_Cuts_CPXPARAM_MIP_Cuts_LiftProj-CPXPARAM_MIP_Cuts_MIRCut-CPXPARAM_MIP_Cuts_FlowCovers 0
Instance1
CPXPARAM_MIP_Cuts_CPXPARAM_MIP_Cuts_LiftProj-CPXPARAM_MIP_Cuts_MIRCut-CPXPARAM_MIP_Cuts_FlowCovers 0
Instance2
CPXPARAM_MIP_Cuts_CPXPARAM_MIP_Cuts_LiftProj-CPXPARAM_MIP_Cuts_MIRCut-CPXPARAM_MIP_Cuts_FlowCovers 5
Instance3
Gap



77.40%
77.40%
CPXPARAM_MIP_Cuts_CPXPARAM_MIP_Cuts_LiftProj-CPXPARAM_MIP_Cuts_MIRCut-CPXPARAM_MIP_Cuts_FlowCovers 0
Instance4
CPXPARAM_MIP_Cuts_CPXPARAM_MIP_Cuts_LiftProj-CPXPARAM_MIP_Cuts_MIRCut-CPXPARAM_MIP_Cuts_FlowCovers 2
Instance5
CPXPARAM_MIP_Cuts_CPXPARAM_MIP_Cuts_LiftProj-CPXPARAM_MIP_Cuts_MIRCut-CPXPARAM_MIP_Cuts_FlowCovers 0
Instance6
Gap

0.35%
0.35%
0.35%
0
CPXPARAM_MIP_Cuts_CPXPARAM_MIP_Cuts_LiftProj-CPXPARAM_MIP_Cuts_MIRCut-CPXPARAM_MIP_Cuts_FlowCovers 0
Instance7
CPXPARAM_MIP_Cuts_CPXPARAM_MIP_Cuts_LiftProj-CPXPARAM_MIP_Cuts_MIRCut-CPXPARAM_MIP_Cuts_FlowCovers 0
Instance8
CPXPARAM_MIP_Cuts_CPXPARAM_MIP_Cuts_LiftProj-CPXPARAM_MIP_Cuts_MIRCut-CPXPARAM_MIP_Cuts_FlowCovers 0
Instance9
Gap

0.00%
0
CPXPARAM_MIP_Cuts_CPXPARAM_MIP_Cuts_LiftProj-CPXPARAM_MIP_Cuts_MIRCut-CPXPARAM_MIP_Cuts_FlowCovers 0
Instance10
CPXPARAM_MIP_Cuts_CPXPARAM_MIP_Cuts_LiftProj-CPXPARAM_MIP_Cuts_MIRCut-CPXPARAM_MIP_Cuts_FlowCovers 0
Instance11
CPXPARAM_MIP_Cuts_CPXPARAM_MIP_Cuts_LiftProj-CPXPARAM_MIP_Cuts_MIRCut-CPXPARAM_MIP_Cuts_FlowCovers 0
Instance12
Gap



0
CPXPARAM_MIP_Cuts_CPXPARAM_MIP_Cuts_LiftProj-CPXPARAM_MIP_Cuts_MIRCut-CPXPARAM_MIP_Cuts_FlowCovers 0
Instance13
CPXPARAM_MIP_Cuts_CPXPARAM_MIP_Cuts_LiftProj-CPXPARAM_MIP_Cuts_MIRCut-CPXPARAM_MIP_Cuts_FlowCovers 1
Instance14
CPXPARAM_MIP_Cuts_CPXPARAM_MIP_Cuts_LiftProj-CPXPARAM_MIP_Cuts_MIRCut-CPXPARAM_MIP_Cuts_FlowCovers 1
Instance15
Gap


82.48%
82.48%
81.97%
CPXPARAM_MIP_Cuts_CPXPARAM_MIP_Cuts_LiftProj-CPXPARAM_MIP_Cuts_MIRCut-CPXPARAM_MIP_Cuts_FlowCovers 1
Instance16
CPXPARAM_MIP_Cuts_CPXPARAM_MIP_Cuts_LiftProj-CPXPARAM_MIP_Cuts_MIRCut-CPXPARAM_MIP_Cuts_FlowCovers 0
Instance17
CPXPARAM_MIP_Cuts_CPXPARAM_MIP_Cuts_LiftProj-CPXPARAM_MIP_Cuts_MIRCut-CPXPARAM_MIP_Cuts_FlowCovers 3
Instance18
Gap
111.50%
92.96%
0.13%
0.13%
0.13%
0.13%
CPXPARAM_MIP_Cuts_CPXPARAM_MIP_Cuts_LiftProj-CPXPARAM_MIP_Cuts_MIRCut-CPXPARAM_MIP_Cuts_FlowCovers 0
Instance19
CPXPARAM_MIP_Cuts_CPXPARAM_MIP_Cuts_LiftProj-CPXPARAM_MIP_Cuts_MIRCut-CPXPARAM_MIP_Cuts_FlowCovers 0
Instance20
CPXPARAM_MIP_Cuts_CPXPARAM_MIP_Cuts_LiftProj-CPXPARAM_MIP_Cuts_MIRCut-CPXPARAM_MIP_Cuts_FlowCovers 0
Instance21
Gap

23.59%
23.59%
23.59%
CPXPARAM_MIP_Cuts_CPXPARAM_MIP_Cuts_LiftProj-CPXPARAM_MIP_Cuts_MIRCut-CPXPARAM_MIP_Cuts_FlowCovers 0
Instance22
CPXPARAM_MIP_Cuts_CPXPARAM_MIP_Cuts_LiftProj-CPXPARAM_MIP_Cuts_MIRCut-CPXPARAM_MIP_Cuts_FlowCovers 0
Instance23
CPXPARAM_MIP_Cuts_CPXPARAM_MIP_Cuts_LiftProj-CPXPARAM_MIP_Cuts_MIRCut-CPXPARAM_MIP_Cuts_FlowCovers 1
Instance24
Gap





3.07%
3.07%
3.07%
3.07%
3.04%
3.04%
3.03%
2.99%
2.97%
2.91%
2.83%
2.69%
2.56%
2.52%
2.52%
2.10%
CPXPARAM_MIP_Cuts_CPXPARAM_MIP_Cuts_LiftProj-CPXPARAM_MIP_Cuts_MIRCut-CPXPARAM_MIP_Cuts_FlowCovers 0
Instance25
CPXPARAM_MIP_Cuts_CPXPARAM_MIP_Cuts_LiftProj-CPXPARAM_MIP_Cuts_MIRCut-CPXPARAM_MIP_Cuts_FlowCovers 0
Instance26
CPXPARAM_MIP_Cuts_CPXPARAM_MIP_Cuts_LiftProj-CPXPARAM_MIP_Cuts_MIRCut-CPXPARAM_MIP_Cuts_FlowCovers 11
Instance27
Gap


0
CPXPARAM_MIP_Cuts_CPXPARAM_MIP_Cuts_LiftProj-CPXPARAM_MIP_Cuts_MIRCut-CPXPARAM_MIP_Cuts_FlowCovers 0
Instance28
CPXPARAM_MIP_Cuts_CPXPARAM_MIP_Cuts_LiftProj-CPXPARAM_MIP_Cuts_MIRCut-CPXPARAM_MIP_Cuts_FlowCovers 0
Instance29
CPXPARAM_MIP_Cuts_CPXPARAM_MIP_Cuts_LiftProj-CPXPARAM_MIP_Cuts_MIRCut-CPXPARAM_MIP_Cuts_FlowCovers 4
Instance30
Gap



0.01%
CPXPARAM_MIP_Cuts_CPXPARAM_MIP_Cuts_LiftProj-CPXPARAM_MIP_Cuts_MIRCut-CPXPARAM_MIP_Cuts_FlowCovers 0
Instance31
CPXPARAM_MIP_Cuts_CPXPARAM_MIP_Cuts_LiftProj-CPXPARAM_MIP_Cuts_MIRCut-CPXPARAM_MIP_Cuts_FlowCovers 0
Instance32
CPXPARAM_MIP_Cuts_CPXPARAM_MIP_Cuts_LiftProj-CPXPARAM_MIP_Cuts_MIRCut-CPXPARAM_MIP_Cuts_FlowCovers 2
Instance33
Gap

0.02%
0
CPXPARAM_MIP_Cuts_CPXPARAM_MIP_Cuts_LiftProj-CPXPARAM_MIP_Cuts_MIRCut-CPXPARAM_MIP_Cuts_FlowCovers 0
Instance34
CPXPARAM_MIP_Cuts_CPXPARAM_MIP_Cuts_LiftProj-CPXPARAM_MIP_Cuts_MIRCut-CPXPARAM_MIP_Cuts_FlowCovers 0
Instance35
CPXPARAM_MIP_Cuts_CPXPARAM_MIP_Cuts_LiftProj-CPXPARAM_MIP_Cuts_MIRCut-CPXPARAM_MIP_Cuts_FlowCovers 0
Instance36
Gap






22.55%
21.15%
20.98%
20.34%
20.06%
19.94%
19.86%
19.64%
19.56%
19.50%
19.17%
19.10%
18.15%
17.61%
16.89%
16.82%
16.79%
16.71%
9.16%
9.16%
9.16%
8.96%
8.93%
8.62%
8.54%
8.41%
8.20%
8.17%
8.14%
8.10%
8.06%
7.72%
7.69%
7.62%
7.62%
7.49%
7.46%
7.43%
7.37%
7.36%
7.35%
7.24%
CPXPARAM_MIP_Cuts_CPXPARAM_MIP_Cuts_LiftProj-CPXPARAM_MIP_Cuts_MIRCut-CPXPARAM_MIP_Cuts_FlowCovers 0
Instance37
CPXPARAM_MIP_Cuts_CPXPARAM_MIP_Cuts_LiftProj-CPXPARAM_MIP_Cuts_MIRCut-CPXPARAM_MIP_Cuts_FlowCovers 0
Instance38
CPXPARAM_MIP_Cuts_CPXPARAM_MIP_Cuts_LiftProj-CPXPARAM_MIP_Cuts_MIRCut-CPXPARAM_MIP_Cuts_FlowCovers 17
Instance39
Gap

37.35%
37.35%
37.35%
37.35%
CPXPARAM_MIP_Cuts_CPXPARAM_MIP_Cuts_LiftProj-CPXPARAM_MIP_Cuts_MIRCut-CPXPARAM_MIP_Cuts_FlowCovers 0
Instance40
CPXPARAM_MIP_Cuts_CPXPARAM_MIP_Cuts_LiftProj-CPXPARAM_MIP_Cuts_MIRCut-CPXPARAM_MIP_Cuts_FlowCovers 1
Instance41
CPXPARAM_MIP_Cuts_CPXPARAM_MIP_Cuts_LiftProj-CPXPARAM_MIP_Cuts_MIRCut-CPXPARAM_MIP_Cuts_FlowCovers 1
Instance42
Gap

1.86%
1.86%
1.86%
1.86%
CPXPARAM_MIP_Cuts_CPXPARAM_MIP_Cuts_LiftProj-CPXPARAM_MIP_Cuts_MIRCut-CPXPARAM_MIP_Cuts_FlowCovers 0
Instance43
CPXPARAM_MIP_Cuts_CPXPARAM_MIP_Cuts_LiftProj-CPXPARAM_MIP_Cuts_MIRCut-CPXPARAM_MIP_Cuts_FlowCovers 0
Instance44
CPXPARAM_MIP_Cuts_CPXPARAM_MIP_Cuts_LiftProj-CPXPARAM_MIP_Cuts_MIRCut-CPXPARAM_MIP_Cuts_FlowCovers 0
Instance45
Gap
112.51%
98.57%
3.14%
3.14%
3.14%
3.14%
CPXPARAM_MIP_Cuts_CPXPARAM_MIP_Cuts_LiftProj-CPXPARAM_MIP_Cuts_MIRCut-CPXPARAM_MIP_Cuts_FlowCovers 0
Instance46
CPXPARAM_MIP_Cuts_CPXPARAM_MIP_Cuts_LiftProj-CPXPARAM_MIP_Cuts_MIRCut-CPXPARAM_MIP_Cuts_FlowCovers 0
Instance47
CPXPARAM_MIP_Cuts_CPXPARAM_MIP_Cuts_LiftProj-CPXPARAM_MIP_Cuts_MIRCut-CPXPARAM_MIP_Cuts_FlowCovers 0
Instance48
Gap



4.87%
4.87%
4.87%
4.87%
4.87%
4.18%
CPXPARAM_MIP_Cuts_CPXPARAM_MIP_Cuts_LiftProj-CPXPARAM_MIP_Cuts_MIRCut-CPXPARAM_MIP_Cuts_FlowCovers 0
Instance49
CPXPARAM_MIP_Cuts_CPXPARAM_MIP_Cuts_LiftProj-CPXPARAM_MIP_Cuts_MIRCut-CPXPARAM_MIP_Cuts_FlowCovers 0
Instance50
CPXPARAM_MIP_Cuts_CPXPARAM_MIP_Cuts_LiftProj-CPXPARAM_MIP_Cuts_MIRCut-CPXPARAM_MIP_Cuts_FlowCovers 3
Instance51
Gap


52.86%
52.86%
52.86%
CPXPARAM_MIP_Cuts_CPXPARAM_MIP_Cuts_LiftProj-CPXPARAM_MIP_Cuts_MIRCut-CPXPARAM_MIP_Cuts_FlowCovers 0
Instance52
CPXPARAM_MIP_Cuts_CPXPARAM_MIP_Cuts_LiftProj-CPXPARAM_MIP_Cuts_MIRCut-CPXPARAM_MIP_Cuts_FlowCovers 0
Instance53
CPXPARAM_MIP_Cuts_CPXPARAM_MIP_Cuts_LiftProj-CPXPARAM_MIP_Cuts_MIRCut-CPXPARAM_MIP_Cuts_FlowCovers 2
Instance54
Gap
110.91%
93.14%
93.14%
12.16%
12.16%
CPXPARAM_MIP_Cuts_CPXPARAM_MIP_Cuts_LiftProj-CPXPARAM_MIP_Cuts_MIRCut-CPXPARAM_MIP_Cuts_FlowCovers 0
Instance55
CPXPARAM_MIP_Cuts_CPXPARAM_MIP_Cuts_LiftProj-CPXPARAM_MIP_Cuts_MIRCut-CPXPARAM_MIP_Cuts_FlowCovers 0
Instance56
CPXPARAM_MIP_Cuts_CPXPARAM_MIP_Cuts_LiftProj-CPXPARAM_MIP_Cuts_MIRCut-CPXPARAM_MIP_Cuts_FlowCovers 1
Instance57
Gap
114.31%
97.72%
0.46%
0.46%
0.46%
0.46%
CPXPARAM_MIP_Cuts_CPXPARAM_MIP_Cuts_LiftProj-CPXPARAM_MIP_Cuts_MIRCut-CPXPARAM_MIP_Cuts_FlowCovers 0
Instance58
CPXPARAM_MIP_Cuts_CPXPARAM_MIP_Cuts_LiftProj-CPXPARAM_MIP_Cuts_MIRCut-CPXPARAM_MIP_Cuts_FlowCovers 0
Instance59
CPXPARAM_MIP_Cuts_CPXPARAM_MIP_Cuts_LiftProj-CPXPARAM_MIP_Cuts_MIRCut-CPXPARAM_MIP_Cuts_FlowCovers 0
Instance60
Gap

0
CPXPARAM_MIP_Cuts_CPXPARAM_MIP_Cuts_LiftProj-CPXPARAM_MIP_Cuts_MIRCut-CPXPARAM_MIP_Cuts_FlowCovers 0
Instance61
CPXPARAM_MIP_Cuts_CPXPARAM_MIP_Cuts_LiftProj-CPXPARAM_MIP_Cuts_MIRCut-CPXPARAM_MIP_Cuts_FlowCovers 0
Instance62
CPXPARAM_MIP_Cuts_CPXPARAM_MIP_Cuts_LiftProj-CPXPARAM_MIP_Cuts_MIRCut-CPXPARAM_MIP_Cuts_FlowCovers 0
Instance63
Gap



40.71%
40.71%
CPXPARAM_MIP_Cuts_CPXPARAM_MIP_Cuts_LiftProj-CPXPARAM_MIP_Cuts_MIRCut-CPXPARAM_MIP_Cuts_FlowCovers 0
Instance64
CPXPARAM_MIP_Cuts_CPXPARAM_MIP_Cuts_LiftProj-CPXPARAM_MIP_Cuts_MIRCut-CPXPARAM_MIP_Cuts_FlowCovers 0
Instance65
CPXPARAM_MIP_Cuts_CPXPARAM_MIP_Cuts_LiftProj-CPXPARAM_MIP_Cuts_MIRCut-CPXPARAM_MIP_Cuts_FlowCovers 2
Instance66
Gap

0.39%
0.39%
0.39%
0.39%
0.39%
CPXPARAM_MIP_Cuts_CPXPARAM_MIP_Cuts_LiftProj-CPXPARAM_MIP_Cuts_MIRCut-CPXPARAM_MIP_Cuts_FlowCovers 0
Instance67
CPXPARAM_MIP_Cuts_CPXPARAM_MIP_Cuts_LiftProj-CPXPARAM_MIP_Cuts_MIRCut-CPXPARAM_MIP_Cuts_FlowCovers 0
Instance68
CPXPARAM_MIP_Cuts_CPXPARAM_MIP_Cuts_LiftProj-CPXPARAM_MIP_Cuts_MIRCut-CPXPARAM_MIP_Cuts_FlowCovers 1
Instance69
Gap



3.15%
3.15%
3.15%
3.15%
3.15%
CPXPARAM_MIP_Cuts_CPXPARAM_MIP_Cuts_LiftProj-CPXPARAM_MIP_Cuts_MIRCut-CPXPARAM_MIP_Cuts_FlowCovers 0
Instance70
CPXPARAM_MIP_Cuts_CPXPARAM_MIP_Cuts_LiftProj-CPXPARAM_MIP_Cuts_MIRCut-CPXPARAM_MIP_Cuts_FlowCovers 0
Instance71
CPXPARAM_MIP_Cuts_CPXPARAM_MIP_Cuts_LiftProj-CPXPARAM_MIP_Cuts_MIRCut-CPXPARAM_MIP_Cuts_FlowCovers 2
Instance72
Gap

10.00%
10.00%
10.00%
10.00%
10.00%
10.00%
10.00%
9.90%
CPXPARAM_MIP_Cuts_CPXPARAM_MIP_Cuts_LiftProj-CPXPARAM_MIP_Cuts_MIRCut-CPXPARAM_MIP_Cuts_FlowCovers 0
Instance73
CPXPARAM_MIP_Cuts_CPXPARAM_MIP_Cuts_LiftProj-CPXPARAM_MIP_Cuts_MIRCut-CPXPARAM_MIP_Cuts_FlowCovers 0
Instance74
CPXPARAM_MIP_Cuts_CPXPARAM_MIP_Cuts_LiftProj-CPXPARAM_MIP_Cuts_MIRCut-CPXPARAM_MIP_Cuts_FlowCovers 2
Instance75
Gap



0
CPXPARAM_MIP_Cuts_CPXPARAM_MIP_Cuts_LiftProj-CPXPARAM_MIP_Cuts_MIRCut-CPXPARAM_MIP_Cuts_FlowCovers 0
Instance76
CPXPARAM_MIP_Cuts_CPXPARAM_MIP_Cuts_LiftProj-CPXPARAM_MIP_Cuts_MIRCut-CPXPARAM_MIP_Cuts_FlowCovers 0
Instance77
CPXPARAM_MIP_Cuts_CPXPARAM_MIP_Cuts_LiftProj-CPXPARAM_MIP_Cuts_MIRCut-CPXPARAM_MIP_Cuts_FlowCovers 1
Instance78
Gap
0.00%
CPXPARAM_MIP_Cuts_CPXPARAM_MIP_Cuts_LiftProj-CPXPARAM_MIP_Cuts_MIRCut-CPXPARAM_MIP_Cuts_FlowCovers 0
Instance79
CPXPARAM_MIP_Cuts_CPXPARAM_MIP_Cuts_LiftProj-CPXPARAM_MIP_Cuts_MIRCut-CPXPARAM_MIP_Cuts_FlowCovers 0
Instance80
CPXPARAM_MIP_Cuts_CPXPARAM_MIP_Cuts_LiftProj-CPXPARAM_MIP_Cuts_MIRCut-CPXPARAM_MIP_Cuts_FlowCovers 0
Instance81
Gap

0.42%
0.42%
0.42%
0.42%
CPXPARAM_MIP_Cuts_CPXPARAM_MIP_Cuts_LiftProj-CPXPARAM_MIP_Cuts_MIRCut-CPXPARAM_MIP_Cuts_FlowCovers 0
Instance82
CPXPARAM_MIP_Cuts_CPXPARAM_MIP_Cuts_LiftProj-CPXPARAM_MIP_Cuts_MIRCut-CPXPARAM_MIP_Cuts_FlowCovers 0
Instance83
CPXPARAM_MIP_Cuts_CPXPARAM_MIP_Cuts_LiftProj-CPXPARAM_MIP_Cuts_MIRCut-CPXPARAM_MIP_Cuts_FlowCovers 0
Instance84
Gap



0
CPXPARAM_MIP_Cuts_CPXPARAM_MIP_Cuts_LiftProj-CPXPARAM_MIP_Cuts_MIRCut-CPXPARAM_MIP_Cuts_FlowCovers 0
Instance85
CPXPARAM_MIP_Cuts_CPXPARAM_MIP_Cuts_LiftProj-CPXPARAM_MIP_Cuts_MIRCut-CPXPARAM_MIP_Cuts_FlowCovers 1
Instance86
CPXPARAM_MIP_Cuts_CPXPARAM_MIP_Cuts_LiftProj-CPXPARAM_MIP_Cuts_MIRCut-CPXPARAM_MIP_Cuts_FlowCovers 2
Instance87
Gap
111.49%
406.57%
82.87%
82.87%
82.87%
82.87%
CPXPARAM_MIP_Cuts_CPXPARAM_MIP_Cuts_LiftProj-CPXPARAM_MIP_Cuts_MIRCut-CPXPARAM_MIP_Cuts_FlowCovers 1
Instance88
CPXPARAM_MIP_Cuts_CPXPARAM_MIP_Cuts_LiftProj-CPXPARAM_MIP_Cuts_MIRCut-CPXPARAM_MIP_Cuts_FlowCovers 1
Instance89
CPXPARAM_MIP_Cuts_CPXPARAM_MIP_Cuts_LiftProj-CPXPARAM_MIP_Cuts_MIRCut-CPXPARAM_MIP_Cuts_FlowCovers 3
Instance90
Gap
120.75%
227.70%
17.33%
17.33%
0.85%
0.85%
0.85%
0.85%
0.85%
0.85%
CPXPARAM_MIP_Cuts_CPXPARAM_MIP_Cuts_LiftProj-CPXPARAM_MIP_Cuts_MIRCut-CPXPARAM_MIP_Cuts_FlowCovers 0
Instance91
CPXPARAM_MIP_Cuts_CPXPARAM_MIP_Cuts_LiftProj-CPXPARAM_MIP_Cuts_MIRCut-CPXPARAM_MIP_Cuts_FlowCovers 0
Instance92
CPXPARAM_MIP_Cuts_CPXPARAM_MIP_Cuts_LiftProj-CPXPARAM_MIP_Cuts_MIRCut-CPXPARAM_MIP_Cuts_FlowCovers 2
Instance93
Gap

5.20%
5.20%
5.20%
5.20%
CPXPARAM_MIP_Cuts_CPXPARAM_MIP_Cuts_LiftProj-CPXPARAM_MIP_Cuts_MIRCut-CPXPARAM_MIP_Cuts_FlowCovers 0
Instance94
CPXPARAM_MIP_Cuts_CPXPARAM_MIP_Cuts_LiftProj-CPXPARAM_MIP_Cuts_MIRCut-CPXPARAM_MIP_Cuts_FlowCovers 0
Instance95
CPXPARAM_MIP_Cuts_CPXPARAM_MIP_Cuts_LiftProj-CPXPARAM_MIP_Cuts_MIRCut-CPXPARAM_MIP_Cuts_FlowCovers 0
Instance96
Gap



6.38%
6.38%
6.38%
6.38%
6.38%
CPXPARAM_MIP_Cuts_CPXPARAM_MIP_Cuts_LiftProj-CPXPARAM_MIP_Cuts_MIRCut-CPXPARAM_MIP_Cuts_FlowCovers 0
Instance97
CPXPARAM_MIP_Cuts_CPXPARAM_MIP_Cuts_LiftProj-CPXPARAM_MIP_Cuts_MIRCut-CPXPARAM_MIP_Cuts_FlowCovers 0
Instance98
CPXPARAM_MIP_Cuts_CPXPARAM_MIP_Cuts_LiftProj-CPXPARAM_MIP_Cuts_MIRCut-CPXPARAM_MIP_Cuts_FlowCovers 2
Instance99
Gap



0
CPXPARAM_MIP_Cuts_CPXPARAM_MIP_Cuts_LiftProj-CPXPARAM_MIP_Cuts_MIRCut-CPXPARAM_MIP_Cuts_FlowCovers 0
Instance100
CPXPARAM_MIP_Cuts_CPXPARAM_MIP_Cuts_LiftProj-CPXPARAM_MIP_Cuts_MIRCut-CPXPARAM_MIP_Cuts_FlowCovers 0
Instance101
CPXPARAM_MIP_Cuts_CPXPARAM_MIP_Cuts_LiftProj-CPXPARAM_MIP_Cuts_MIRCut-CPXPARAM_MIP_Cuts_FlowCovers 3
Instance102
Gap



0.14%
0.14%
0.13%
0
CPXPARAM_MIP_Cuts_CPXPARAM_MIP_Cuts_LiftProj-CPXPARAM_MIP_Cuts_MIRCut-CPXPARAM_MIP_Cuts_FlowCovers 0
Instance103
CPXPARAM_MIP_Cuts_CPXPARAM_MIP_Cuts_LiftProj-CPXPARAM_MIP_Cuts_MIRCut-CPXPARAM_MIP_Cuts_FlowCovers 0
Instance104
CPXPARAM_MIP_Cuts_CPXPARAM_MIP_Cuts_LiftProj-CPXPARAM_MIP_Cuts_MIRCut-CPXPARAM_MIP_Cuts_FlowCovers 2
Instance105
Gap



2.41%
2.41%
2.41%
2.41%
2.10%
CPXPARAM_MIP_Cuts_CPXPARAM_MIP_Cuts_LiftProj-CPXPARAM_MIP_Cuts_MIRCut-CPXPARAM_MIP_Cuts_FlowCovers 0
Instance106
CPXPARAM_MIP_Cuts_CPXPARAM_MIP_Cuts_LiftProj-CPXPARAM_MIP_Cuts_MIRCut-CPXPARAM_MIP_Cuts_FlowCovers 0
Instance107
CPXPARAM_MIP_Cuts_CPXPARAM_MIP_Cuts_LiftProj-CPXPARAM_MIP_Cuts_MIRCut-CPXPARAM_MIP_Cuts_FlowCovers 2
Instance108
Gap


8.38%
8.38%
8.38%
8.38%
8.38%
8.38%
8.12%
CPXPARAM_MIP_Cuts_CPXPARAM_MIP_Cuts_LiftProj-CPXPARAM_MIP_Cuts_MIRCut-CPXPARAM_MIP_Cuts_FlowCovers 0
Instance109
CPXPARAM_MIP_Cuts_CPXPARAM_MIP_Cuts_LiftProj-CPXPARAM_MIP_Cuts_MIRCut-CPXPARAM_MIP_Cuts_FlowCovers 0
Instance110
CPXPARAM_MIP_Cuts_CPXPARAM_MIP_Cuts_LiftProj-CPXPARAM_MIP_Cuts_MIRCut-CPXPARAM_MIP_Cuts_FlowCovers 3
Instance111
Gap



161.00%
161.00%
CPXPARAM_MIP_Cuts_CPXPARAM_MIP_Cuts_LiftProj-CPXPARAM_MIP_Cuts_MIRCut-CPXPARAM_MIP_Cuts_FlowCovers 0
Instance112
CPXPARAM_MIP_Cuts_CPXPARAM_MIP_Cuts_LiftProj-CPXPARAM_MIP_Cuts_MIRCut-CPXPARAM_MIP_Cuts_FlowCovers 0
Instance113
CPXPARAM_MIP_Cuts_CPXPARAM_MIP_Cuts_LiftProj-CPXPARAM_MIP_Cuts_MIRCut-CPXPARAM_MIP_Cuts_FlowCovers 2
Instance114
Gap

0.21%
0.21%
0.21%
0.21%
CPXPARAM_MIP_Cuts_CPXPARAM_MIP_Cuts_LiftProj-CPXPARAM_MIP_Cuts_MIRCut-CPXPARAM_MIP_Cuts_FlowCovers 0
Instance115
CPXPARAM_MIP_Cuts_CPXPARAM_MIP_Cuts_LiftProj-CPXPARAM_MIP_Cuts_MIRCut-CPXPARAM_MIP_Cuts_FlowCovers 0
Instance116
CPXPARAM_MIP_Cuts_CPXPARAM_MIP_Cuts_LiftProj-CPXPARAM_MIP_Cuts_MIRCut-CPXPARAM_MIP_Cuts_FlowCovers 0
Instance117
Gap

0.50%
0.50%
0.50%
0
CPXPARAM_MIP_Cuts_CPXPARAM_MIP_Cuts_LiftProj-CPXPARAM_MIP_Cuts_MIRCut-CPXPARAM_MIP_Cuts_FlowCovers 0
Instance118
CPXPARAM_MIP_Cuts_CPXPARAM_MIP_Cuts_LiftProj-CPXPARAM_MIP_Cuts_MIRCut-CPXPARAM_MIP_Cuts_FlowCovers 0
Instance119
CPXPARAM_MIP_Cuts_CPXPARAM_MIP_Cuts_LiftProj-CPXPARAM_MIP_Cuts_MIRCut-CPXPARAM_MIP_Cuts_FlowCovers 0
